32	0

0	1	2
8	2	3	4
6	1	5
10	1	5
8	1	6
7	1	7
7	1	8
6	1	9
8	1	10
5	1	11
3	1	12
3	1	13
3	1	14
2	1	15
5	1	16
1	1	17
10	1	18
1	1	19
1	1	20
10	1	21
3	1	22
1	1	23
1	1	24
1	1	25
7	1	26
6	1	27
1	1	28
1	1	29
1	1	30
3	1	31
1	1	32
0	0
